%%%mzn-stat: initTime=0.009331103
%%%mzn-stat: objective=752
%%%mzn-stat: nodes=1234
%%%mzn-stat: restarts=0
%%%mzn-stat: peakDepth=79
%%%mzn-stat: solveTime=0.025522836
%%%mzn-stat: variables=208
%%%mzn-stat: propagators=129
%%%mzn-stat: failures=649
%%%mzn-stat: propagations=34003
%%%mzn-stat: nogoods=649
%%%mzn-stat: AverageConflictSize=2.573189522342065
%%%mzn-stat: NumUnitNogoodsLearned=546
%%%mzn-stat: AverageLearnedNogoodLength=1.605546995377504
%%%mzn-stat: AverageBacktrackAmount=0
%%%mzn-stat: AverageLbd=1.4329738058551618
%%%mzn-stat-end
maxleg = 752;
succ = array1d(1..20,[10, 7, 13, 9, 19, 2, 3, 14, 18, 6, 17, 8, 12, 16, 11, 5, 4, 20, 15, 1]);
% time elapsed: 8.85 s
----------
==========
% time elapsed: 8.85 s
%%%mzn-stat: initTime=0.009331103
%%%mzn-stat: objective=752
%%%mzn-stat: nodes=1234
%%%mzn-stat: restarts=0
%%%mzn-stat: peakDepth=79
%%%mzn-stat: solveTime=0.025525662
%%%mzn-stat: variables=208
%%%mzn-stat: propagators=129
%%%mzn-stat: failures=649
%%%mzn-stat: propagations=34003
%%%mzn-stat: nogoods=649
%%%mzn-stat: AverageConflictSize=2.573189522342065
%%%mzn-stat: NumUnitNogoodsLearned=546
%%%mzn-stat: AverageLearnedNogoodLength=1.605546995377504
%%%mzn-stat: AverageBacktrackAmount=0
%%%mzn-stat: AverageLbd=1.4329738058551618
%%%mzn-stat-end
